============================[ Problem Statistics ]=============================|                                                                             ||  Number of variables:          4242                                         ||  Number of clauses:           10394                                         ||  Parse time:                   0.79 s                                       ||                                                                             |============================[ Search Statistics ]==============================| Conflicts |          ORIGINAL         |          LEARNT          | Progress ||           |    Vars  Clauses Literals |    Limit  Clauses Lit/Cl |          |===============================================================================|       100 |    1591     6599  1246410 |     2419      100     53 | 62.501 % ||       250 |    1591     6599  1246410 |     2661      250     75 | 62.495 % |===============================================================================restarts              : 4conflicts             : 422            (353 /sec)decisions             : 783            (0.00 % random) (656 /sec)propagations          : 13689          (11465 /sec)conflict literals     : 35359          (94.51 % deleted)CPU time              : 1.194 sSATISFIABLE